
Starting CP-SAT solver v9.15.6755
Parameters: random_seed: 2026073267 max_time_in_seconds: 2500 log_search_progress: true cp_model_presolve: true linearization_level: 2 num_search_workers: 4 cp_model_probing_level: 2 symmetry_level: 2

Initial satisfaction model '': (model_fingerprint: 0x254c6af0c4658fe7)
#Variables: 724 (608 primary variables)
  - 724 Booleans in [0,1]
#kBoolAnd: 110 (#enforced: 110) (#literals: 330)
#kBoolOr: 110 (#enforced: 110) (#literals: 220)
#kExactlyOne: 87 (#literals: 261)
#kLinear1: 32 (#enforced: 6)
#kLinear2: 336 (#enforced: 336) (#complex_domain: 110)
#kLinear3: 1'600 (#enforced: 6)
#kLinearN: 1'132 (#enforced: 243) (#terms: 9'111)

Starting presolve at 0.00s
  6.73e-04s  0.00e+00d  [DetectDominanceRelations] 
  8.78e-03s  0.00e+00d  [PresolveToFixPoint] #num_loops=3 #num_dual_strengthening=1 
  3.42e-05s  0.00e+00d  [ExtractEncodingFromLinear] #potential_supersets=86 
  3.06e-04s  0.00e+00d  [DetectDuplicateColumns] 
  9.88e-05s  0.00e+00d  [DetectDuplicateConstraints] #duplicates=5 
[Symmetry] Graph for symmetry has 4'868 nodes and 15'706 arcs.
[Symmetry] Symmetry computation done. time: 0.00127236 dtime: 0.00180432
[SAT presolve] num removable Booleans: 220 / 626
[SAT presolve] num trivial clauses: 0
[SAT presolve] [0s] clauses:2'724 literals:7'408 vars:506 one_side_vars:66 simple_definition:1 singleton_clauses:0
[SAT presolve] [0.00021815s] clauses:2'723 literals:7'401 vars:506 one_side_vars:66 simple_definition:1 singleton_clauses:0
[SAT presolve] [0.000666404s] clauses:2'244 literals:6'597 vars:380 one_side_vars:73 simple_definition:65 singleton_clauses:0
  1.14e-04s  0.00e+00d  [DetectDuplicateConstraintsWithDifferentEnforcements] #without_enforcements=2 
  5.45e-03s  2.24e-03d  [Probe] #probed=1'308 #fixed_bools=8 #equiv=6 #new_binary_clauses=1'044 
  4.74e-04s  3.18e-04d  [MaxClique] Merged 585 constraints with 1'299 literals into 497 constraints with 1'161 literals
  8.37e-04s  0.00e+00d  [DetectDominanceRelations] 
  3.12e-03s  0.00e+00d  [PresolveToFixPoint] #num_loops=1 #num_dual_strengthening=1 
  1.20e-03s  0.00e+00d  [ProcessAtMostOneAndLinear] 
  1.01e-04s  0.00e+00d  [DetectDuplicateConstraints] #duplicates=4 
  8.68e-05s  0.00e+00d  [DetectDuplicateConstraintsWithDifferentEnforcements] 
  3.73e-03s  1.13e-04d  [DetectDominatedLinearConstraints] #relevant_constraints=838 #num_inclusions=549 #num_redundant=7 
  1.23e-04s  0.00e+00d  [DetectDifferentVariables] 
  7.37e-04s  8.48e-05d  [ProcessSetPPC] #relevant_constraints=3'018 #num_inclusions=90 
  2.55e-04s  3.36e-05d  [TransformClausesToExactlyOne] #num_amos=508 #num_clauses=1'676 #num_checked=1'676 
  5.05e-05s  0.00e+00d  [DetectEncodedComplexDomains] 
  3.02e-05s  0.00e+00d  [FindAlmostIdenticalLinearConstraints] 
  9.35e-04s  1.47e-03d  [FindBigAtMostOneAndLinearOverlap] 
  1.41e-03s  1.09e-03d  [FindBigVerticalLinearOverlap] #blocks=6 #saved_nz=234 
  3.35e-04s  5.47e-04d  [FindBigHorizontalLinearOverlap] #linears=458 
  3.14e-04s  2.71e-05d  [MergeClauses] #num_collisions=22 #num_merges=22 #num_saved_literals=110 
  8.15e-04s  0.00e+00d  [DetectDominanceRelations] 
  3.06e-03s  0.00e+00d  [PresolveToFixPoint] #num_loops=2 #num_dual_strengthening=1 
  8.08e-04s  0.00e+00d  [DetectDominanceRelations] 
  2.95e-03s  0.00e+00d  [PresolveToFixPoint] #num_loops=1 #num_dual_strengthening=1 
  1.51e-04s  0.00e+00d  [DetectDuplicateColumns] 
  1.01e-04s  0.00e+00d  [DetectDuplicateConstraints] 
[Symmetry] Graph for symmetry has 4'344 nodes and 13'623 arcs.
[Symmetry] Symmetry computation done. time: 0.000996835 dtime: 0.00138785
[SAT presolve] num removable Booleans: 93 / 485
[SAT presolve] num trivial clauses: 0
[SAT presolve] [0s] clauses:2'126 literals:6'321 vars:455 one_side_vars:154 simple_definition:75 singleton_clauses:0
[SAT presolve] [0.000206499s] clauses:2'126 literals:6'142 vars:455 one_side_vars:195 simple_definition:67 singleton_clauses:0
[SAT presolve] [0.000278955s] clauses:2'119 literals:6'133 vars:452 one_side_vars:197 simple_definition:58 singleton_clauses:0
  1.49e-04s  0.00e+00d  [DetectDuplicateConstraintsWithDifferentEnforcements] 
  5.80e-03s  1.98e-03d  [Probe] #probed=1'300 #new_binary_clauses=840 
  4.18e-04s  3.51e-04d  [MaxClique] Merged 504 constraints with 1'118 literals into 499 constraints with 1'116 literals
  8.21e-04s  0.00e+00d  [DetectDominanceRelations] 
  3.01e-03s  0.00e+00d  [PresolveToFixPoint] #num_loops=1 #num_dual_strengthening=1 
  1.11e-03s  0.00e+00d  [ProcessAtMostOneAndLinear] 
  1.16e-04s  0.00e+00d  [DetectDuplicateConstraints] 
  1.08e-04s  0.00e+00d  [DetectDuplicateConstraintsWithDifferentEnforcements] 
  9.05e-04s  6.00e-05d  [DetectDominatedLinearConstraints] #relevant_constraints=835 #num_inclusions=333 
  1.35e-04s  0.00e+00d  [DetectDifferentVariables] 
  7.12e-04s  7.40e-05d  [ProcessSetPPC] #relevant_constraints=3'043 #num_inclusions=96 
  2.98e-04s  3.29e-05d  [TransformClausesToExactlyOne] #num_amos=500 #num_clauses=1'671 #num_checked=1'671 
  4.51e-05s  0.00e+00d  [DetectEncodedComplexDomains] 
  3.75e-05s  0.00e+00d  [FindAlmostIdenticalLinearConstraints] 
  8.34e-04s  1.15e-03d  [FindBigAtMostOneAndLinearOverlap] 
  1.28e-03s  9.88e-04d  [FindBigVerticalLinearOverlap] #blocks=1 #saved_nz=37 
  3.15e-04s  5.15e-04d  [FindBigHorizontalLinearOverlap] #linears=456 
  3.37e-04s  2.62e-05d  [MergeClauses] #num_collisions=76 #num_merges=76 #num_saved_literals=219 
  8.58e-04s  0.00e+00d  [DetectDominanceRelations] 
  3.08e-03s  0.00e+00d  [PresolveToFixPoint] #num_loops=2 #num_dual_strengthening=1 
  8.33e-04s  0.00e+00d  [DetectDominanceRelations] 
  3.05e-03s  0.00e+00d  [PresolveToFixPoint] #num_loops=1 #num_dual_strengthening=1 
  1.65e-04s  0.00e+00d  [DetectDuplicateColumns] 
  9.46e-05s  0.00e+00d  [DetectDuplicateConstraints] 
[Symmetry] Graph for symmetry has 4'283 nodes and 13'262 arcs.
[Symmetry] Symmetry computation done. time: 0.000926292 dtime: 0.00128878
[SAT presolve] num removable Booleans: 90 / 482
[SAT presolve] num trivial clauses: 0
[SAT presolve] [0s] clauses:2'111 literals:6'112 vars:452 one_side_vars:198 simple_definition:59 singleton_clauses:0
[SAT presolve] [0.000193343s] clauses:2'111 literals:6'112 vars:452 one_side_vars:198 simple_definition:59 singleton_clauses:0
[SAT presolve] [0.000254428s] clauses:2'111 literals:6'112 vars:452 one_side_vars:198 simple_definition:59 singleton_clauses:0
  1.48e-04s  0.00e+00d  [DetectDuplicateConstraintsWithDifferentEnforcements] 
  5.62e-03s  1.96e-03d  [Probe] #probed=1'300 #new_binary_clauses=839 
  4.18e-04s  3.47e-04d  [MaxClique] Merged 498 constraints with 1'106 literals into 497 constraints with 1'105 literals
  8.39e-04s  0.00e+00d  [DetectDominanceRelations] 
  3.06e-03s  0.00e+00d  [PresolveToFixPoint] #num_loops=1 #num_dual_strengthening=1 
  1.11e-03s  0.00e+00d  [ProcessAtMostOneAndLinear] 
  1.05e-04s  0.00e+00d  [DetectDuplicateConstraints] 
  1.01e-04s  0.00e+00d  [DetectDuplicateConstraintsWithDifferentEnforcements] 
  8.10e-04s  5.74e-05d  [DetectDominatedLinearConstraints] #relevant_constraints=836 #num_inclusions=323 
  1.35e-04s  0.00e+00d  [DetectDifferentVariables] 
  7.23e-04s  7.33e-05d  [ProcessSetPPC] #relevant_constraints=3'039 #num_inclusions=93 
  2.92e-04s  3.29e-05d  [TransformClausesToExactlyOne] #num_amos=497 #num_clauses=1'671 #num_checked=1'671 
  5.61e-05s  0.00e+00d  [DetectEncodedComplexDomains] 
  5.46e-05s  0.00e+00d  [FindAlmostIdenticalLinearConstraints] 
  8.30e-04s  1.12e-03d  [FindBigAtMostOneAndLinearOverlap] 
  1.22e-03s  9.71e-04d  [FindBigVerticalLinearOverlap] #blocks=1 #saved_nz=49 
  1.91e-04s  2.66e-04d  [FindBigHorizontalLinearOverlap] #linears=454 
  3.43e-04s  2.62e-05d  [MergeClauses] #num_collisions=76 #num_merges=76 #num_saved_literals=219 
  8.67e-04s  0.00e+00d  [DetectDominanceRelations] 
  3.06e-03s  0.00e+00d  [PresolveToFixPoint] #num_loops=2 #num_dual_strengthening=1 
  2.91e-05s  0.00e+00d  [MergeNoOverlap] 
  3.06e-05s  0.00e+00d  [MergeNoOverlap2D] 

Presolve summary:
  - 37 affine relations were detected.
  - rule 'TODO dual: only one blocking constraint?' was applied 890 times.
  - rule 'TODO dual: tighten at most one' was applied 8 times.
  - rule 'TODO linear inclusion: superset is equality' was applied 226 times.
  - rule 'affine: new relation' was applied 37 times.
  - rule 'at_most_one: removed literals' was applied 41 times.
  - rule 'at_most_one: size one' was applied 40 times.
  - rule 'at_most_one: transformed into max clique' was applied 3 times.
  - rule 'bool_or: implications' was applied 57 times.
  - rule 'bool_or: only one literal' was applied 12 times.
  - rule 'bool_or: removed enforcement literal' was applied 557 times.
  - rule 'deductions: 857 stored' was applied 1 time.
  - rule 'duplicate: merged rhs of linear constraint' was applied 8 times.
  - rule 'duplicate: removed constraint' was applied 9 times.
  - rule 'duplicate: removed enforced constraint' was applied 2 times.
  - rule 'enforcement: false literal' was applied 32 times.
  - rule 'enforcement: true literal' was applied 6 times.
  - rule 'exactly_one: removed literals' was applied 33 times.
  - rule 'exactly_one: satisfied' was applied 3 times.
  - rule 'exactly_one: singleton' was applied 3 times.
  - rule 'exactly_one: size two' was applied 30 times.
  - rule 'exactly_one: x and not(x)' was applied 4 times.
  - rule 'incompatible linear: add implication' was applied 132 times.
  - rule 'linear + amo: empty after processing' was applied 6 times.
  - rule 'linear + amo: extracted enforcement literal' was applied 54 times.
  - rule 'linear inclusion: redundant containing constraint' was applied 3 times.
  - rule 'linear inclusion: redundant included constraint' was applied 3 times.
  - rule 'linear inclusion: sparsify superset' was applied 1 time.
  - rule 'linear matrix: common vertical rectangle' was applied 8 times.
  - rule 'linear1: always true' was applied 1 time.
  - rule 'linear1: x in domain' was applied 26 times.
  - rule 'linear2: convert ax + by != cte to clauses' was applied 256 times.
  - rule 'linear2: convert implied ax + by == cte to clauses' was applied 114 times.
  - rule 'linear2: implied ax + by = cte has only one solution' was applied 8 times.
  - rule 'linear: always true' was applied 418 times.
  - rule 'linear: empty' was applied 3 times.
  - rule 'linear: enforcement literal in expression' was applied 2 times.
  - rule 'linear: extracted at most one (max)' was applied 1 time.
  - rule 'linear: fixed or dup variables' was applied 881 times.
  - rule 'linear: negative clause' was applied 1'293 times.
  - rule 'linear: negative reified and' was applied 78 times.
  - rule 'linear: never in domain' was applied 6 times.
  - rule 'linear: positive at most one' was applied 34 times.
  - rule 'linear: reduced variable domains' was applied 9 times.
  - rule 'linear: remapped using affine relations' was applied 26 times.
  - rule 'presolve: 74 unused variables removed.' was applied 1 time.
  - rule 'presolve: iteration' was applied 3 times.
  - rule 'probing: bool_or reduced to implication' was applied 21 times.
  - rule 'probing: simplified clauses' was applied 8 times.
  - rule 'setppc: bool_or in at_most_one' was applied 7 times.
  - rule 'setppc: removed dominated constraints' was applied 91 times.
  - rule 'variables: both boolean and its negation fix the same variable' was applied 1 time.
  - rule 'variables: detect half reified value encoding' was applied 2 times.

Presolved satisfaction model '': (model_fingerprint: 0x5ad429e397eb6516)
#Variables: 489 (421 primary variables)
  - 482 Booleans in [0,1]
  - 7 in [0,2]
#kAtMostOne: 59 (#literals: 229)
#kBoolAnd: 262 (#enforced: 262) (#literals: 700)
#kBoolAndClauses: 76 (#enforced: 76 #multi: 76) (#literals: 371)
#kBoolOr: 1'519 (#literals: 4'642)
#kExactlyOne: 53 (#literals: 201)
#kLinear3: 21 (#enforced: 14)
#kLinearN: 816 (#enforced: 120) (#terms: 5'686)
[Symmetry] Graph for symmetry has 4'043 nodes and 13'212 arcs.
[Symmetry] Symmetry computation done. time: 0.0008019 dtime: 0.0012803

Preloading model.
#Model   0.10s var:489/489 constraints:2806/2806

Starting search at 0.10s with 4 workers.
3 full problem subsolvers: [default_lp, max_lp, no_lp]
1 first solution subsolver: [fj]
2 interleaved subsolvers: [feasibility_pump, rins/rens]
2 helper subsolvers: [neighborhood_helper, synchronization_agent]

#Model  14.76s var:488/489 constraints:2804/2806
#Model  21.24s var:487/489 constraints:2802/2806
#Model  21.39s var:486/489 constraints:2800/2806
#Model  26.72s var:485/489 constraints:2799/2806
#Model  30.56s var:484/489 constraints:2797/2806
#Model 433.57s var:482/489 constraints:2795/2806
#Model 455.67s var:481/489 constraints:2778/2806
#Model 608.00s var:477/489 constraints:2742/2806
#Model 810.07s var:476/489 constraints:2742/2806
#Model 1250.67s var:475/489 constraints:2728/2806
#Model 1323.13s var:472/489 constraints:2707/2806
#Model 1436.51s var:471/489 constraints:2689/2806
#Model 1442.27s var:470/489 constraints:2670/2806
#Model 1550.57s var:469/489 constraints:2649/2806
#Model 1662.04s var:468/489 constraints:2634/2806
#Model 1680.63s var:467/489 constraints:2613/2806
#Model 1700.34s var:465/489 constraints:2611/2806
#Model 1702.14s var:464/489 constraints:2594/2806
#Model 1706.63s var:462/489 constraints:2576/2806
#Model 1710.34s var:461/489 constraints:2560/2806
#Model 1710.73s var:460/489 constraints:2541/2806
#Model 1712.60s var:458/489 constraints:2539/2806
#Model 1713.53s var:452/489 constraints:2474/2806
#Model 1714.21s var:451/489 constraints:2457/2806
#Model 1714.49s var:447/489 constraints:2408/2806
#Model 1714.72s var:445/489 constraints:2377/2806
#Model 1715.35s var:444/489 constraints:2360/2806
#Model 1716.07s var:313/489 constraints:1135/2806
#Done  1716.07s no_lp

Task timing                   n [     min,      max]      avg      dev     time         n [     min,      max]      avg      dev    dtime
        'default_lp':         1 [  28.60m,   28.60m]   28.60m   0.00ns   28.60m         2 [  1.93ms,   27.72m]   13.86m   13.86m   27.72m
  'feasibility_pump':      8510 [806.37us, 137.98ms]   1.51ms   1.51ms   12.88s      8509 [275.62us, 117.23ms] 291.48us   1.27ms    2.48s
                'fj':      5943 [110.96ms, 208.86ms] 143.21ms  10.57ms   14.18m      5943 [100.00ms, 100.14ms] 100.02ms  12.33us    9.91m
            'max_lp':         1 [  28.60m,   28.60m]   28.60m   0.00ns   28.60m         2 [ 76.75ms,   32.53m]   16.26m   16.26m   32.53m
             'no_lp':         1 [  28.60m,   28.60m]   28.60m   0.00ns   28.60m         2 [  1.78ms,   57.11m]   28.56m   28.56m   57.11m
         'rins/rens':      7509 [912.30us, 245.35ms] 113.34ms  44.67ms   14.18m      7505 [122.40us, 100.30ms]  66.69ms  38.44ms    8.34m

Search stats     Bools   Conflicts    Branches  Restarts  BacktrackToRoot   Backtrack     BoolPropag  IntegerPropag
  'default_lp':    482     195'521   6'648'466       916        1'086'494   1'550'262     82'080'371     81'700'956
      'max_lp':    482     167'425   8'156'998       758        1'319'032   1'787'764     99'972'843    105'067'119
       'no_lp':    482  14'550'939  20'452'727    48'659          457'880  14'949'158  1'210'025'087    344'165'129

SAT formula      Fixed  Equiv  Total  VarLeft  BinaryClauses  PermanentClauses  TemporaryClauses
  'default_lp':     31      6    482      445          3'984            27'021               983
      'max_lp':     44      8    482      430          4'130            19'483               786
       'no_lp':    293      6    482      183          3'038            28'565               416

SAT stats        ClassicMinim   LitRemoved  LitRemovedBinary   LitLearned  LitForgotten   Subsumed
  'default_lp':       169'870    2'510'694         1'678'577    5'028'178     2'575'483     78'596
      'max_lp':       137'940    1'854'081         1'174'620    3'741'980     1'924'008     55'235
       'no_lp':    12'958'371  258'290'657       118'205'023  370'701'651   302'296'615  3'671'527

Vivification       Clauses  Decisions  LitTrue  Subsumed  LitRemoved  DecisionReused  Conflicts
  'default_lp':  1'154'697  6'218'103       32    28'409     305'697         381'156      3'524
      'max_lp':  1'388'064  7'724'150       67    30'580     330'399         431'212      3'895
       'no_lp':    358'220  2'977'755        8    28'491     392'695          90'511      2'591

Clause deletion    at_true  l_and_not(l)  to_binary  sub_conflict  sub_extra  sub_decisions  sub_eager  sub_vivify  sub_probing  sub_inpro  blocked  eliminated   forgotten    promoted   conflicts
    'default_lp':   16'268            46        104        76'959        461          2'495      1'637      28'409       13'995     37'624        0           0      73'663     360'165     195'521
        'max_lp':   22'462         1'575        152        54'450        462          1'520        785      30'580       16'979     33'000        0           0      68'778     317'837     167'425
         'no_lp':  109'254            87        313     3'602'481     31'612        153'012     69'046      28'491       32'550    153'459        0           0  10'360'044  33'225'496  14'550'939

Lp stats         Component  Iterations  AddedCuts  OPTIMAL  DUAL_F.  DUAL_U.
  'default_lp':          1  18'564'225     71'483  244'051        1  111'480
      'max_lp':          1   8'531'848     88'348   38'231  132'752   21'979

Lp dimension        Final dimension of first component
  'default_lp':    271 rows, 352 columns, 2943 entries
      'max_lp':  1156 rows, 489 columns, 17931 entries

Lp debug         CutPropag  CutEqPropag   Adjust  Overflow        Bad  BadScaling
  'default_lp':          0           35  111'478         0  1'849'245           0
      'max_lp':          2           56   21'971         0  2'469'859           0

Lp pool          Constraints  Updates  Simplif  Merged  Shortened  Split  Strengthened       Cuts/Call
  'default_lp':       10'275   15'441        0       0        266      0             0  71'483/154'148
      'max_lp':       12'489   41'076        0       7        482      0         1'499  88'348/216'353

Lp Cut            default_lp  max_lp
          CG_FF:         686     120
           CG_K:         372      11
          CG_KL:         338       6
           CG_R:         708      69
          CG_RB:          18      22
         CG_RBP:           -       6
         Clique:           -     571
             IB:          82       8
       MIR_1_FF:         454     835
        MIR_1_K:         124      55
       MIR_1_KL:         320      62
        MIR_1_R:         414     482
       MIR_1_RB:           -       1
      MIR_1_RLT:           -   7'190
       MIR_2_FF:         456     684
        MIR_2_K:         119     158
       MIR_2_KL:         273     161
        MIR_2_R:         507     843
       MIR_2_RB:           1       7
      MIR_2_RBP:           4       5
       MIR_3_FF:         234     208
        MIR_3_K:          39      33
       MIR_3_KL:          88      23
        MIR_3_R:         245     318
       MIR_3_RB:           2       9
      MIR_3_RBP:           4       9
       MIR_4_FF:          60      59
        MIR_4_K:          11       8
       MIR_4_KL:          21      11
        MIR_4_R:         139     237
       MIR_4_RB:           6      10
      MIR_4_RBP:           8      10
       MIR_5_FF:          26      24
        MIR_5_K:           4       5
       MIR_5_KL:           3       3
        MIR_5_R:         104     203
       MIR_5_RB:           6       9
      MIR_5_RBP:           3      12
       MIR_6_FF:           8      13
        MIR_6_K:           1       3
       MIR_6_KL:           1       -
        MIR_6_R:          76     201
       MIR_6_RB:           2      10
      MIR_6_RBP:           1      10
   ZERO_HALF_FF:         256     523
    ZERO_HALF_K:         106      43
   ZERO_HALF_KL:          66       8
    ZERO_HALF_R:      65'014  74'813
   ZERO_HALF_RB:          26     222
  ZERO_HALF_RBP:          47      15

LNS stats       Improv/Calls  Closed  Difficulty  TimeLimit
  'rins/rens':     7507/7507     50%    8.30e-01       0.10

LS stats                                    Batches  Restarts/Perturbs    LinMoves    GenMoves  CompoundMoves  Bactracks  WeightUpdates  ScoreComputed
                             'fj_restart':      268                 91   7'772'946           0              0          0      7'120'267     13'087'545
                    'fj_restart_compound':      289                 81           0   3'451'899        196'052  1'627'745          7'782     54'052'596
                'fj_restart_compound_obj':      309                 85           0   3'660'860        221'160  1'719'665          7'990     57'779'950
            'fj_restart_compound_perturb':      234                 78           0   2'780'626        183'591  1'298'358          5'739     43'600'810
        'fj_restart_compound_perturb_obj':      323                 94           0   3'847'213        231'898  1'807'471          8'286     60'297'860
                       'fj_restart_decay':      488                 93  16'969'846           0              0          0        730'029      9'466'210
              'fj_restart_decay_compound':      450                 94           0   5'907'087        951'894  2'477'376          6'047     85'578'035
          'fj_restart_decay_compound_obj':      224                 69           0   2'872'884        460'969  1'205'774          3'050     42'519'683
      'fj_restart_decay_compound_perturb':      427                 72           0   5'729'712        902'902  2'413'227          5'609     81'222'698
  'fj_restart_decay_compound_perturb_obj':      852                 84           0  11'771'501      1'880'908  4'944'980         11'304    162'202'321
                   'fj_restart_decay_obj':      326                 88  11'334'936           0              0          0        487'965      6'310'595
               'fj_restart_decay_perturb':      213                 68   7'402'015           0              0          0        318'738      4'128'243
           'fj_restart_decay_perturb_obj':      386                 85  13'433'020           0              0          0        576'401      7'470'813
                         'fj_restart_obj':      288                 85   8'183'994           0              0          0      7'548'833     14'264'046
                     'fj_restart_perturb':      252                 93   7'464'236           0              0          0      6'568'818     12'224'665
                 'fj_restart_perturb_obj':      614                 90  16'865'733           0              0          0     16'815'708     30'615'684

Solution repositories    Added  Queried  Synchro
    'alternative_path':      0        0        0
      'best_solutions':      0        0        0
   'fj solution hints':  1'342        0    1'342
        'lp solutions':  1'675    7'509    1'672
                'pump':      0        0

Improving bounds shared    Num  Sym
            'default_lp':    7    0
                'max_lp':   18    0
                 'no_lp':  206    0

Clauses shared    #Exported  #Imported  #BinaryRead  #BinaryTotal
   'default_lp':     10'589     85'455        2'016         2'630
       'max_lp':     11'690     85'147        2'435         2'630
        'no_lp':     80'683     19'626        2'630         2'630

LRAT_status: NA
CpSolverResponse summary:
status: INFEASIBLE
objective: NA
best_bound: NA
integers: 352
booleans: 482
conflicts: 14550939
branches: 20452727
propagations: 1210025087
integer_propagations: 344165129
restarts: 48659
lp_iterations: 0
walltime: 1716.08
usertime: 1716.08
deterministic_time: 8139.19
gap_integral: 0

{
  "board_size": 22,
  "parity_proved": 0,
  "target": 34,
  "child_id": 1167,
  "child_count": 2640,
  "partition": "unknown_pair_x_diag_plus_twos_x_diag_minus_twos",
  "build_seconds": 0.08043217658996582,
  "workers": 4,
  "requested_seed": 2026073267,
  "effective_seed": 2026073267,
  "main_diagonal_pair": [
    3,
    4
  ],
  "pair_index": 57,
  "diag_plus_twos": 17,
  "diag_minus_twos": 15,
  "pair_excess": 0,
  "residual_certificate_slack": 112,
  "analytic_minimum_line_defect": 22,
  "analytic_defect_details": {
    "row_costs": {
      "12": 6,
      "13": 3,
      "14": 0,
      "15": 0,
      "16": 0,
      "17": 0
    },
    "column_costs": {
      "12": 6,
      "13": 3,
      "14": 0,
      "15": 0,
      "16": 0,
      "17": 0
    },
    "plus_cost": 0,
    "minus_cost": 22,
    "row_column_minimum": 0
  },
  "maximal_line_constraints": 2455,
  "analytic_infeasible": false,
  "allowed_points": 242,
  "status": "INFEASIBLE",
  "proof_method": "cp_sat_all_lines_with_certificate_profile_cuts",
  "elapsed_seconds": 1716.083936214447,
  "branches": 20452727,
  "conflicts": 14550939
}
